COLUMNS

passenger_count
pickup_ID
dropoff_ID
request_time_sec
pickup_district
dropoff_district
LDuals
IDuals
vehicle_ID
pick_position
drop_position

REQUESTS_INFO
2      314       389       30666     119       299       181       181       421       1         2         
1      971       840       30682     290       290       123       123       972       1         2         
3      644       918       30659     131       50        105       105       1065      1         2         
1      276       698       30672     87        189       134       134       1954      1         2         
1      557       417       30690     189       100       0         0         0         0         0         
1      680       421       30690     290       168       0         0         0         0         0         
1      864       460       30691     290       189       0         0         0         0         0         
2      502       725       30691     52        290       0         0         0         0         0         
3      280       1075      30691     277       84        0         0         0         0         0         
2      280       1075      30691     277       84        0         0         0         0         0         
1      793       627       30692     290       189       0         0         0         0         0         
1      34        697       30692     98        189       0         0         0         0         0         
1      99        268       30692     286       299       0         0         0         0         0         
1      632       651       30692     189       189       0         0         0         0         0         
1      510       529       30693     199       189       0         0         0         0         0         
1      688       937       30695     131       291       0         0         0         0         0         
1      608       743       30695     189       290       0         0         0         0         0         
1      1417      914       30695     129       291       0         0         0         0         0         
1      374       558       30695     119       189       0         0         0         0         0         
1      621       671       30696     280       280       0         0         0         0         0         
1      197       526       30696     178       52        0         0         0         0         0         
1      1023      1023      30696     291       291       0         0         0         0         0         
1      328       552       30696     299       189       0         0         0         0         0         
1      412       452       30696     52        52        0         0         0         0         0         
1      269       332       30696     127       87        0         0         0         0         0         
3      398       553       30697     168       189       0         0         0         0         0         
3      398       553       30697     168       189       0         0         0         0         0         
1      1022      1168      30697     291       291       0         0         0         0         0         
1      332       769       30697     87        290       0         0         0         0         0         
2      531       97        30698     189       9         0         0         0         0         0         
1      1106      554       30698     291       189       0         0         0         0         0         
1      771       698       30698     290       189       0         0         0         0         0         
3      59        582       30698     999       189       0         0         0         0         0         
3      59        582       30698     999       189       0         0         0         0         0         
1      351       209       30699     52        266       0         0         0         0         0         
2      949       700       30700     290       290       0         0         0         0         0         
1      662       947       30700     131       290       0         0         0         0         0         
1      859       697       30701     290       189       0         0         0         0         0         
1      397       604       30701     168       189       0         0         0         0         0         
1      678       604       30701     290       189       0         0         0         0         0         
1      486       727       30701     199       290       0         0         0         0         0         
1      746       699       30702     290       290       0         0         0         0         0         
2      477       504       30702     52        52        0         0         0         0         0         
1      556       556       30702     199       199       0         0         0         0         0         
1      10        557       30703     98        189       0         0         0         0         0         
1      557       35        30703     189       98        0         0         0         0         0         
1      370       698       30703     52        189       0         0         0         0         0         
1      579       647       30703     189       280       0         0         0         0         0         
2      513       772       30704     199       290       0         0         0         0         0         
1      694       862       30704     189       290       0         0         0         0         0         
3      721       925       30704     290       290       0         0         0         0         0         
1      31        669       30704     9         280       0         0         0         0         0         
2      409       463       30704     52        168       0         0         0         0         0         
1      439       579       30704     189       189       0         0         0         0         0         
1      778       782       30704     131       291       0         0         0         0         0         
3      513       772       30704     199       290       0         0         0         0         0         
1      718       1218      30704     189       84        0         0         0         0         0         
1      668       62        30705     280       98        0         0         0         0         0         
1      575       686       30705     189       131       0         0         0         0         0         
3      551       216       30705     189       178       0         0         0         0         0         
3      152       549       30706     9         52        0         0         0         0         0         
1      740       804       30706     50        291       0         0         0         0         0         
1      739       669       30706     189       280       0         0         0         0         0         
2      749       415       30706     290       100       0         0         0         0         0         
3      152       549       30706     9         52        0         0         0         0         0         
1      597       718       30707     131       189       0         0         0         0         0         
2      481       620       30707     189       131       0         0         0         0         0         
1      937       698       30707     291       189       0         0         0         0         0         
1      620       530       30707     131       189       0         0         0         0         0         
1      317       698       30708     277       189       0         0         0         0         0         
1      772       139       30708     290       57        0         0         0         0         0         
1      556       64        30708     199       98        0         0         0         0         0         
3      397       605       30709     168       189       0         0         0         0         0         
1      1022      916       30709     291       291       0         0         0         0         0         
2      1066      936       30709     291       291       0         0         0         0         0         
1      793       534       30709     290       199       0         0         0         0         0         
3      397       605       30709     168       189       0         0         0         0         0         
1      558       476       30710     189       52        0         0         0         0         0         
1      375       531       30711     119       189       0         0         0         0         0         
1      622       536       30711     280       189       0         0         0         0         0         
1      35        698       30711     98        189       0         0         0         0         0         
1      827       574       30712     291       189       0         0         0         0         0         
2      967       696       30712     50        189       0         0         0         0         0         
1      99        160       30712     286       54        0         0         0         0         0         
1      771       510       30712     290       199       0         0         0         0         0         
1      791       698       30712     290       189       0         0         0         0         0         
1      354       443       30713     119       168       0         0         0         0         0         
3      580       748       30714     189       290       0         0         0         0         0         
3      580       748       30714     189       290       0         0         0         0         0         
3      443       698       30714     168       189       0         0         0         0         0         
2      443       698       30714     168       189       0         0         0         0         0         
1      465       461       30714     199       189       0         0         0         0         0         
1      505       624       30714     52        189       0         0         0         0         0         
1      674       1011      30714     189       84        0         0         0         0         0         
2      269       485       30714     127       189       0         0         0         0         0         
1      769       653       30714     290       189       0         0         0         0         0         
1      556       597       30715     199       131       0         0         0         0         0         
1      556       621       30715     199       280       0         0         0         0         0         
3      556       443       30718     199       168       0         0         0         0         0         
3      556       443       30718     199       168       0         0         0         0         0         
1      971       628       30718     290       189       0         0         0         0         0         
1      10        48        30719     98        98        0         0         0         0         0         
